% seed = 0

mint = 29;
% maxt = 184;

nActs = 92;
dur = [0,4,2,1,3,1,2,1,4,1,1,3,3,2,2,2,1,2,2,2,2,1,2,1,4,1,1,1,2,1,2,2,3,4,1,2,3,2,1,1,4,2,2,3,1,2,2,2,1,1,1,1,2,3,1,2,1,3,1,2,1,1,2,2,3,1,2,2,5,3,2,1,3,2,2,2,3,2,1,2,2,2,3,2,3,4,4,3,3,2,1,0];

nSkills = 12;
sreq = [| 0,0,0,0,0,0,0,0,0,0,0,0,
	| 0,0,1,0,0,0,0,1,0,0,0,0,
	| 0,0,0,0,0,0,0,1,0,0,1,0,
	| 0,1,1,1,0,0,1,0,0,0,0,0,
	| 0,0,0,0,2,0,0,0,1,0,0,0,
	| 1,0,0,0,0,1,0,0,0,0,0,0,
	| 0,0,0,0,0,0,0,0,1,0,0,0,
	| 0,0,0,0,0,0,0,1,0,0,1,0,
	| 0,1,1,0,1,2,0,1,1,0,1,0,
	| 0,0,0,0,0,0,0,1,0,0,0,0,
	| 0,0,0,0,1,1,0,0,0,0,0,0,
	| 0,1,0,0,0,0,1,0,0,0,2,0,
	| 0,0,0,0,0,0,0,1,0,0,1,0,
	| 0,0,0,0,0,0,0,0,1,0,0,0,
	| 0,1,0,0,1,0,1,0,1,1,0,0,
	| 0,0,0,0,0,1,0,0,0,0,0,0,
	| 0,0,1,0,0,2,0,0,0,1,0,0,
	| 0,0,1,0,0,1,0,1,1,0,1,0,
	| 0,0,0,0,2,0,1,0,0,1,2,0,
	| 0,0,1,0,0,1,0,2,0,0,1,0,
	| 0,0,0,0,0,0,0,2,0,0,1,0,
	| 0,0,0,0,0,0,1,1,0,0,1,1,
	| 0,0,0,0,0,0,0,1,1,1,1,0,
	| 0,1,0,0,1,2,0,2,1,0,0,0,
	| 0,0,0,0,1,0,0,0,0,0,0,0,
	| 0,0,1,0,0,0,2,1,2,0,1,0,
	| 0,0,1,0,1,1,0,0,3,0,2,0,
	| 0,1,0,0,1,0,1,1,0,0,1,0,
	| 0,2,0,1,0,1,1,0,1,0,1,0,
	| 0,0,0,0,0,1,1,0,2,0,0,0,
	| 0,0,0,0,0,0,0,2,0,1,0,0,
	| 0,1,0,1,0,0,1,1,1,0,0,0,
	| 0,0,1,0,0,0,0,1,0,0,0,0,
	| 1,0,1,0,0,0,0,0,2,0,0,0,
	| 0,0,1,2,0,0,0,2,2,1,0,0,
	| 0,1,0,1,1,0,0,0,1,0,3,0,
	| 0,1,0,0,0,0,0,0,0,0,1,0,
	| 0,0,0,0,0,0,0,0,1,0,0,0,
	| 0,0,0,0,0,0,0,1,0,0,0,0,
	| 0,0,1,0,0,2,0,2,0,0,0,0,
	| 0,0,1,0,0,1,0,0,0,0,0,0,
	| 0,0,0,0,1,0,0,0,0,0,1,0,
	| 0,0,0,0,0,0,0,2,0,0,0,0,
	| 0,0,1,0,1,1,1,1,0,0,2,0,
	| 0,0,0,0,0,0,1,0,0,1,0,0,
	| 0,0,0,0,0,0,1,0,1,0,0,0,
	| 0,0,0,0,1,0,0,0,3,1,0,0,
	| 0,1,0,1,1,1,0,1,1,0,0,1,
	| 0,0,1,0,0,0,0,0,0,0,0,0,
	| 0,0,0,0,0,0,0,0,0,0,1,0,
	| 0,0,0,0,1,1,1,1,0,1,0,0,
	| 0,0,0,0,1,0,0,1,0,0,0,0,
	| 0,1,0,0,1,1,1,1,2,0,1,0,
	| 0,0,0,0,1,1,0,0,2,0,1,0,
	| 0,0,0,0,0,1,0,0,1,2,0,0,
	| 0,0,2,0,1,0,0,0,0,0,2,0,
	| 0,0,0,1,0,1,0,0,0,0,0,1,
	| 0,0,1,1,0,0,1,1,0,0,1,0,
	| 0,0,0,0,0,0,0,1,0,0,1,0,
	| 0,0,0,0,0,1,0,0,0,0,0,1,
	| 0,0,0,1,0,0,0,1,1,0,1,0,
	| 0,0,1,0,0,1,0,0,1,1,0,0,
	| 0,0,0,0,0,1,0,0,0,0,0,1,
	| 0,1,0,1,1,0,0,2,0,0,1,0,
	| 0,1,0,1,1,0,2,0,0,1,0,0,
	| 0,0,0,0,1,0,0,1,1,0,0,0,
	| 0,0,0,0,0,2,0,0,2,0,0,0,
	| 0,1,0,0,0,1,0,0,0,0,0,0,
	| 0,0,0,0,0,1,1,0,0,1,1,0,
	| 0,0,0,1,0,1,0,0,0,0,0,0,
	| 0,1,2,0,1,1,0,0,0,0,1,0,
	| 0,0,0,1,1,0,2,1,1,0,1,0,
	| 0,0,1,0,1,0,0,1,0,0,0,0,
	| 1,0,0,0,1,1,0,0,0,0,0,0,
	| 0,0,1,0,1,1,0,0,3,0,1,1,
	| 0,0,0,0,1,0,0,1,1,1,0,0,
	| 0,0,1,0,0,1,0,1,1,0,1,1,
	| 0,0,0,0,1,1,0,1,0,0,0,0,
	| 0,0,0,1,0,0,1,0,1,0,0,0,
	| 0,0,0,0,0,0,0,0,0,0,1,1,
	| 0,1,1,1,0,1,0,1,0,0,1,0,
	| 0,0,0,0,2,0,1,2,0,0,0,0,
	| 0,0,1,0,1,1,0,3,0,0,1,0,
	| 0,0,0,1,1,2,0,2,0,0,0,1,
	| 0,0,1,1,0,0,0,2,1,0,0,0,
	| 0,0,1,0,1,0,0,0,2,0,0,1,
	| 0,0,1,0,1,1,1,1,0,0,1,0,
	| 0,0,1,0,1,1,0,1,0,1,0,0,
	| 0,0,1,0,0,0,1,1,1,1,2,0,
	| 0,0,0,0,1,1,1,0,1,0,1,1,
	| 0,0,0,0,1,1,1,1,1,1,0,1,
	| 0,0,0,0,0,0,0,0,0,0,0,0, |];

% SumOfsreq = 368;

nResources = 26;
mastery = [| false,false,false,false,false,false,true,true,true,false,false,false,
	| true,true,true,false,false,false,false,false,false,false,false,false,
	| false,false,false,false,false,false,true,true,true,true,true,true,
	| false,false,false,false,false,false,false,true,true,false,false,false,
	| false,false,false,false,false,false,false,true,true,false,false,false,
	| false,false,false,true,true,true,false,false,false,true,true,true,
	| false,false,false,false,true,true,false,false,false,false,false,false,
	| false,false,false,false,false,false,true,true,true,false,false,false,
	| false,false,false,false,false,false,false,false,false,true,true,true,
	| false,false,false,false,false,false,false,false,false,false,true,true,
	| false,false,false,true,true,true,false,false,false,false,false,false,
	| false,false,true,false,false,false,false,false,false,false,false,true,
	| false,false,false,false,false,false,false,false,false,false,false,true,
	| false,false,false,true,true,true,false,false,false,false,false,false,
	| false,false,false,false,false,false,true,true,true,false,false,false,
	| false,false,false,false,true,true,false,false,false,false,false,false,
	| false,false,false,true,true,true,false,false,false,false,false,true,
	| false,false,false,false,false,true,false,false,false,false,false,false,
	| false,false,false,false,false,false,false,true,true,false,false,false,
	| false,false,false,false,false,false,false,true,true,false,false,false,
	| false,false,false,false,true,true,false,false,false,false,false,false,
	| false,false,false,false,false,false,false,false,false,true,true,true,
	| false,false,false,false,false,false,false,false,true,false,false,false,
	| false,false,false,false,false,false,false,false,false,true,true,true,
	| false,true,true,false,false,false,false,false,false,false,false,false,
	| false,false,false,false,false,false,false,false,false,false,true,true, |];

nPrecs = 166;
pred = [1,1,1,2,2,2,3,3,3,4,4,4,5,5,5,6,6,6,7,8,8,8,9,9,9,10,10,10,11,11,11,12,12,12,13,13,13,14,15,15,16,16,17,17,17,18,18,18,19,20,20,20,21,22,22,22,23,23,23,24,25,25,25,26,27,27,28,28,29,29,29,30,30,31,32,32,33,33,33,34,34,34,35,36,36,37,37,37,38,38,39,39,39,40,40,40,41,41,42,43,43,43,44,45,46,46,47,47,48,49,49,50,50,51,51,52,52,53,53,54,55,55,56,57,58,58,59,59,59,60,60,61,62,63,64,64,65,66,67,68,68,69,70,71,72,72,73,73,74,75,76,77,78,79,80,81,82,83,84,85,86,87,88,89,90,91];
succ = [2,3,4,13,7,8,59,37,83,9,11,5,50,6,16,10,28,42,23,34,20,66,82,30,24,25,26,51,12,29,14,17,19,15,26,39,64,77,41,24,74,55,18,45,32,44,36,53,21,49,22,56,80,27,51,43,43,68,64,87,33,79,31,52,81,72,61,38,73,46,47,59,48,71,49,35,57,76,36,65,50,44,40,73,54,41,67,69,73,58,67,60,79,81,50,66,44,86,68,65,54,79,85,80,63,56,75,91,70,74,53,59,62,69,70,62,55,75,61,85,57,70,84,84,65,75,77,63,88,68,63,67,74,76,78,72,82,89,84,87,71,89,90,72,77,80,85,78,78,76,89,91,82,81,83,86,87,86,88,91,88,90,90,92,92,92];

nUnrels = 2912;
unpred = [2,2,2,2,2,2,2,2,2,2,2,2,2,2,2,2,2,2,2,2,2,2,2,2,2,2,2,2,2,2,2,2,2,2,2,2,3,3,3,3,3,3,3,3,3,3,3,3,3,3,3,3,3,3,3,3,3,3,3,3,3,3,3,3,3,3,3,3,3,3,3,3,3,3,3,3,3,3,3,3,3,3,3,3,3,3,3,3,3,3,3,3,3,3,3,3,3,3,3,3,3,3,3,3,3,3,3,4,4,4,4,4,4,4,4,4,4,4,4,4,5,5,5,5,5,5,5,5,5,5,5,5,5,5,5,5,5,5,5,5,5,5,5,5,5,5,5,5,5,5,5,5,5,5,5,5,5,5,6,6,6,6,6,6,6,6,6,6,6,6,6,6,6,6,6,6,6,6,6,6,6,6,6,6,6,6,6,6,6,6,6,6,6,6,6,6,6,6,6,6,7,7,7,7,7,7,7,7,7,7,7,7,7,7,7,7,7,7,7,7,7,7,7,7,7,7,7,7,7,7,7,7,7,7,7,7,7,7,7,7,7,7,7,7,7,7,7,7,7,7,7,7,7,7,7,7,7,7,7,7,7,7,7,8,8,8,8,8,8,8,8,8,8,8,8,8,8,8,8,8,8,8,8,8,8,8,8,8,8,8,8,8,8,8,8,8,8,8,8,8,8,8,8,8,8,8,9,9,9,9,9,9,9,9,9,9,9,9,9,9,9,9,9,9,9,9,9,9,9,9,9,9,9,9,9,9,9,9,9,9,9,9,9,9,9,9,9,9,9,9,9,9,9,9,9,9,9,9,9,9,9,9,9,9,9,9,9,9,9,9,9,9,9,9,10,10,10,10,10,10,10,10,10,10,10,10,10,10,10,10,10,10,10,10,10,10,10,10,10,10,10,10,10,10,10,10,10,10,10,10,10,10,10,10,10,10,10,10,10,10,10,10,11,11,11,11,11,11,11,11,11,11,11,11,11,11,11,11,11,11,11,11,11,11,11,11,11,11,11,11,11,11,11,11,11,12,12,12,12,12,12,12,12,12,12,12,12,12,12,12,12,12,12,12,12,12,12,12,12,12,12,12,12,12,12,12,12,12,12,12,12,12,12,13,13,13,13,13,13,13,13,13,13,13,13,13,13,13,13,13,13,13,13,13,13,13,13,13,13,13,13,13,13,13,13,13,13,13,13,13,13,13,13,13,13,13,13,13,13,13,13,14,14,14,14,14,14,14,14,14,14,14,14,14,14,14,14,14,14,14,14,14,14,14,14,14,14,14,14,14,14,14,14,14,14,14,14,14,14,14,14,14,14,14,14,14,14,14,14,14,14,14,14,14,14,14,14,14,14,14,14,14,14,14,14,14,14,14,14,14,14,14,14,14,14,14,15,15,15,15,15,15,15,15,15,15,15,15,15,15,15,15,15,15,15,15,15,15,15,15,15,15,15,15,15,15,15,15,15,15,15,15,15,15,15,15,15,15,15,15,15,15,15,15,15,15,15,15,15,15,15,15,15,15,15,15,15,15,15,15,15,15,15,16,16,16,16,16,16,16,16,16,16,16,16,16,16,16,16,16,16,16,16,16,16,16,16,16,16,16,16,16,16,16,16,16,16,16,16,16,16,16,16,16,16,16,16,16,16,16,16,16,16,16,16,16,16,16,16,16,16,16,16,16,16,16,16,16,17,17,17,17,17,17,17,17,17,17,17,17,17,17,17,17,17,17,17,17,17,17,17,17,17,17,17,17,17,17,17,17,17,17,17,17,17,17,17,18,18,18,18,18,18,18,18,18,18,18,18,18,18,18,18,18,18,18,18,18,18,18,18,18,18,18,18,18,18,18,18,18,18,18,18,18,18,18,18,18,18,18,18,18,18,18,18,18,18,18,18,18,18,18,19,19,19,19,19,19,19,19,19,19,19,19,19,19,19,19,19,19,19,19,19,19,19,19,19,19,19,19,19,19,19,19,19,19,19,19,19,19,19,19,19,19,19,19,19,19,19,19,19,19,19,19,19,19,19,19,19,19,19,19,19,19,19,19,19,19,20,20,20,20,20,20,20,20,20,20,20,20,20,20,20,20,20,20,20,20,20,20,20,20,20,20,20,20,20,20,20,20,20,20,20,20,20,20,20,21,21,21,21,21,21,21,21,21,21,21,21,21,21,21,21,21,21,21,21,21,21,21,21,21,21,21,21,21,21,21,21,21,21,21,21,21,21,21,21,21,21,21,21,21,21,21,21,21,21,21,21,21,21,21,21,21,21,21,21,21,21,21,21,21,22,22,22,22,22,22,22,22,22,22,22,22,22,22,22,22,22,22,22,22,22,22,22,22,22,22,22,22,22,22,22,22,22,22,22,22,22,22,22,22,22,22,22,22,22,22,22,22,23,23,23,23,23,23,23,23,23,23,23,23,23,23,23,23,23,23,23,23,23,23,23,23,23,23,23,23,23,23,23,23,23,23,23,23,23,23,23,23,23,23,23,23,23,23,23,23,24,24,24,24,24,24,24,24,24,24,24,24,24,24,24,24,24,24,24,24,24,24,24,24,24,24,24,24,24,24,24,24,24,24,24,24,24,24,24,24,24,24,24,24,24,24,24,24,24,24,24,24,24,24,24,24,24,24,24,24,24,24,24,24,24,25,25,25,25,25,25,25,25,25,25,25,25,25,25,25,25,25,25,25,25,25,25,25,25,25,25,25,25,25,25,25,25,25,25,25,25,25,25,25,25,25,25,26,26,26,26,26,26,26,26,26,26,26,26,26,26,26,26,26,26,26,26,26,26,26,26,26,26,26,26,26,26,26,26,26,26,26,26,26,26,26,26,26,26,26,26,26,26,26,26,26,26,26,26,26,27,27,27,27,27,27,27,27,27,27,27,27,27,27,27,27,27,27,27,27,27,27,27,27,27,27,27,27,27,27,27,27,27,27,27,27,27,27,27,27,27,27,27,27,27,27,27,27,27,27,27,27,27,27,27,28,28,28,28,28,28,28,28,28,28,28,28,28,28,28,28,28,28,28,28,28,28,28,28,28,28,28,28,28,28,28,28,28,28,28,28,28,28,28,28,28,28,28,28,28,28,29,29,29,29,29,29,29,29,29,29,29,29,29,29,29,29,29,29,29,29,29,29,29,29,29,29,29,29,29,29,29,29,29,29,29,29,29,29,29,29,29,29,29,29,29,29,30,30,30,30,30,30,30,30,30,30,30,30,30,30,30,30,30,30,30,30,30,30,30,30,30,30,30,30,30,30,30,30,30,30,30,30,30,30,30,30,30,30,30,30,30,30,30,30,30,30,30,31,31,31,31,31,31,31,31,31,31,31,31,31,31,31,31,31,31,31,31,31,31,31,31,31,31,31,31,31,31,31,31,31,31,31,31,31,31,31,31,31,31,31,31,31,31,31,31,31,31,31,32,32,32,32,32,32,32,32,32,32,32,32,32,32,32,32,32,32,32,32,32,32,32,32,32,32,32,32,32,32,32,32,32,32,33,33,33,33,33,33,33,33,33,33,33,33,33,33,33,33,33,33,33,33,33,33,33,33,33,33,33,33,33,33,33,33,33,33,33,33,33,33,33,33,33,33,33,33,34,34,34,34,34,34,34,34,34,34,34,34,34,34,34,34,34,34,34,34,34,34,34,34,34,34,34,34,34,34,34,34,34,34,34,34,34,34,34,34,35,35,35,35,35,35,35,35,35,35,35,35,35,35,35,35,35,35,35,35,35,35,35,35,35,35,35,35,35,35,35,35,35,35,35,35,35,35,36,36,36,36,36,36,36,36,36,36,36,36,36,36,36,36,36,36,36,36,36,36,36,36,36,36,36,36,36,36,36,36,36,36,36,36,36,36,36,36,36,36,36,36,36,36,36,37,37,37,37,37,37,37,37,37,37,37,37,37,37,37,37,37,37,37,37,37,37,37,37,37,37,37,37,37,37,37,37,37,37,37,37,37,37,37,37,37,37,37,38,38,38,38,38,38,38,38,38,38,38,38,38,38,38,38,38,38,38,38,38,38,38,38,38,38,38,38,38,38,38,38,38,38,38,38,38,38,38,38,38,39,39,39,39,39,39,39,39,39,39,39,39,39,39,39,39,39,39,39,39,39,39,39,39,39,39,39,39,39,39,39,39,39,40,40,40,40,40,40,40,40,40,40,40,40,40,40,40,40,40,40,40,40,40,40,40,40,40,40,40,40,40,40,40,40,40,40,41,41,41,41,41,41,41,41,41,41,41,41,41,41,41,41,41,41,41,41,41,41,41,41,41,41,41,41,41,41,41,41,41,41,41,41,41,41,41,41,41,41,41,41,42,42,42,42,42,42,42,42,42,42,42,42,42,42,42,42,42,42,42,42,42,42,42,42,42,42,42,42,42,42,42,42,42,42,42,42,42,42,43,43,43,43,43,43,43,43,43,43,43,43,43,43,43,43,43,43,43,43,43,43,43,43,43,43,43,43,43,43,43,43,43,43,43,43,43,44,44,44,44,44,44,44,44,44,44,44,44,44,44,44,44,44,44,44,44,44,44,44,44,44,44,44,44,44,44,44,44,44,44,44,44,44,44,44,44,44,44,44,44,44,45,45,45,45,45,45,45,45,45,45,45,45,45,45,45,45,45,45,45,45,45,45,45,45,45,45,45,45,45,45,45,45,45,45,45,45,45,45,45,45,45,46,46,46,46,46,46,46,46,46,46,46,46,46,46,46,46,46,46,46,46,46,46,46,46,46,46,46,46,46,46,46,46,46,46,46,46,46,46,47,47,47,47,47,47,47,47,47,47,47,47,47,47,47,47,47,47,47,47,47,47,47,47,47,47,47,47,47,47,47,47,47,47,47,47,47,47,47,47,48,48,48,48,48,48,48,48,48,48,48,48,48,48,48,48,48,48,48,48,48,48,48,48,48,48,48,48,48,48,48,48,48,48,48,48,48,48,48,48,48,49,49,49,49,49,49,49,49,49,49,49,49,49,49,49,49,49,49,49,49,49,49,49,49,49,49,49,49,49,50,50,50,50,50,50,50,50,50,50,50,50,50,50,50,50,50,50,50,50,50,50,50,50,50,50,50,50,51,51,51,51,51,51,51,51,51,51,51,51,51,51,51,51,51,51,51,51,51,51,51,51,51,51,51,51,51,51,51,51,51,51,51,51,52,52,52,52,52,52,52,52,52,52,52,52,52,52,52,52,52,52,52,52,52,52,52,52,52,52,52,52,53,53,53,53,53,53,53,53,53,53,53,53,53,53,53,53,53,53,53,53,53,53,53,53,53,53,53,53,53,53,54,54,54,54,54,54,54,54,54,54,54,54,54,54,54,54,54,54,54,54,54,54,54,54,54,54,54,54,54,54,54,54,54,54,54,55,55,55,55,55,55,55,55,55,55,55,55,55,55,55,55,55,55,55,55,55,55,55,55,55,55,55,55,55,55,55,56,56,56,56,56,56,56,56,56,56,56,56,56,56,56,56,56,56,56,56,56,56,56,56,56,56,56,56,56,56,56,56,57,57,57,57,57,57,57,57,57,57,57,57,57,57,57,57,57,57,57,57,57,57,57,57,57,57,57,57,57,57,57,58,58,58,58,58,58,58,58,58,58,58,58,58,58,58,58,58,58,58,58,58,58,58,58,58,58,59,59,59,59,59,59,59,59,59,59,59,59,59,59,59,59,59,59,59,59,59,59,59,59,59,60,60,60,60,60,60,60,60,60,60,60,60,60,60,60,60,60,61,61,61,61,61,61,61,61,61,61,61,61,61,61,61,61,61,61,61,61,61,61,61,61,61,61,62,62,62,62,62,62,62,62,62,62,62,62,62,62,62,62,62,62,62,62,62,62,62,62,63,63,63,63,63,63,63,63,63,63,63,63,63,63,63,63,63,63,63,63,63,63,63,63,63,63,64,64,64,64,64,64,64,64,64,64,64,64,64,64,64,64,65,65,65,65,65,65,65,65,65,65,65,65,65,65,65,65,65,65,65,65,65,65,65,66,66,66,66,66,66,66,66,66,66,66,66,66,66,66,66,66,66,66,66,66,66,66,66,67,67,67,67,67,67,67,67,67,67,67,67,67,67,67,67,67,67,67,67,67,68,68,68,68,68,68,68,68,68,68,68,68,68,69,69,69,69,69,69,69,69,69,69,69,69,69,69,69,69,69,69,69,69,69,70,70,70,70,70,70,70,70,70,70,70,70,70,70,70,70,70,70,70,70,71,71,71,71,71,71,71,71,71,71,71,71,72,72,72,72,72,72,72,72,72,72,72,72,73,73,73,73,73,73,73,73,73,73,73,73,74,74,74,74,74,74,74,74,74,74,74,74,74,75,75,75,75,75,75,75,75,75,75,75,75,75,75,76,76,76,76,76,76,76,76,76,76,76,76,76,76,77,77,77,77,77,77,77,77,77,77,77,77,77,78,78,78,78,78,78,78,78,78,78,79,79,79,79,79,79,79,79,80,80,80,80,80,80,80,81,81,81,81,81,81,81,82,82,82,82,82,82,82,83,83,83,83,83,84,84,84,84,84,85,85,85,85,85,86,86,86,87,87,87,88,88,89,89,90];
unsucc = [3,4,5,6,9,10,11,12,14,15,16,17,18,19,21,24,25,28,29,30,31,32,33,35,36,37,38,40,41,42,45,46,47,48,58,73,4,5,6,7,8,9,10,11,12,13,14,15,16,17,18,19,20,21,22,23,24,25,26,27,28,29,30,31,32,33,34,35,36,38,39,40,42,43,45,46,47,48,49,50,51,52,53,54,55,56,57,58,60,61,62,64,65,66,68,70,71,72,73,74,75,78,79,80,81,82,87,7,8,13,20,22,23,27,34,37,39,43,60,64,7,8,9,11,12,13,14,15,17,18,19,20,21,22,23,24,27,29,30,32,34,35,37,39,40,41,43,44,45,46,47,48,49,53,56,60,64,66,7,8,9,11,12,13,14,15,16,17,18,19,20,21,22,23,24,27,29,30,32,34,35,37,39,40,41,43,44,45,46,47,48,49,50,53,56,59,60,63,64,66,8,9,10,11,12,13,14,15,16,17,18,19,20,21,22,24,25,26,27,28,29,30,31,32,33,34,35,36,37,38,39,40,41,42,44,45,46,47,48,49,50,51,52,53,55,56,57,58,59,60,61,62,63,66,67,69,70,73,74,75,76,84,89,9,10,11,12,13,14,15,16,17,18,19,21,23,24,25,26,28,29,30,31,32,33,35,36,37,38,39,40,41,42,45,46,47,48,52,55,57,58,60,64,68,71,73,10,11,12,13,14,15,16,17,18,19,20,21,22,23,25,26,27,28,29,31,32,33,34,35,36,37,38,39,40,41,42,43,44,45,46,47,49,50,51,52,53,54,55,56,57,58,60,61,62,64,65,66,67,68,69,71,72,73,74,75,78,79,80,81,83,84,85,86,11,12,13,14,15,16,17,18,19,20,21,22,23,24,27,28,29,30,32,34,35,37,38,39,40,41,42,43,44,45,46,47,48,49,50,53,56,58,59,60,61,63,64,65,66,67,68,75,13,16,20,22,23,25,26,27,28,30,31,33,34,37,38,39,42,43,48,51,52,55,57,58,60,64,65,68,69,70,71,72,79,13,14,16,20,22,23,25,26,27,28,29,30,31,33,34,37,38,39,42,43,46,47,48,51,52,55,56,57,58,60,64,65,68,69,70,71,72,79,14,15,16,17,18,19,20,21,22,23,24,25,27,28,29,30,31,32,33,34,35,36,37,38,40,41,42,43,44,45,46,47,48,49,50,51,53,54,56,58,59,61,65,66,69,73,75,85,15,16,17,18,19,20,21,22,23,24,25,26,27,28,29,30,31,32,33,34,35,36,37,38,39,40,41,42,43,44,45,46,47,48,49,50,51,52,53,54,55,56,57,58,59,60,61,62,63,64,65,66,67,68,69,70,71,72,73,74,75,76,78,79,80,81,82,83,84,85,86,87,88,89,90,16,17,18,19,20,21,22,23,25,26,27,28,29,30,31,32,33,34,35,36,37,38,39,40,42,43,45,46,47,48,49,50,51,52,53,54,55,56,57,58,59,60,61,62,63,64,65,66,67,68,69,70,71,72,73,74,75,76,77,78,79,80,81,82,83,84,89,17,18,19,20,21,22,23,24,25,26,27,28,29,30,31,32,33,34,35,36,37,38,39,40,41,42,43,44,45,46,47,48,49,50,51,52,53,54,56,58,59,60,61,62,63,64,65,66,67,68,69,71,72,73,75,76,77,79,80,81,83,85,86,89,91,19,20,21,22,23,24,25,26,27,28,29,30,31,33,34,37,38,39,41,42,43,46,47,48,51,52,55,56,57,58,60,64,65,68,69,70,71,72,79,19,20,21,22,23,24,25,26,27,28,29,30,31,32,33,34,35,37,38,39,40,41,42,43,45,46,47,48,49,50,51,52,55,56,57,58,59,60,62,63,64,65,66,68,69,70,71,72,74,77,79,80,81,83,86,20,22,23,24,25,26,27,28,29,30,31,32,33,34,35,36,37,38,39,40,41,42,43,44,45,46,47,48,49,50,51,52,53,54,55,56,57,58,59,60,61,62,63,64,65,66,67,68,69,70,71,72,73,74,75,76,77,78,79,81,82,84,85,87,89,91,21,23,24,25,26,28,29,30,31,32,33,34,35,36,37,38,39,40,41,42,44,45,46,47,48,50,52,55,57,58,59,60,62,63,64,66,68,71,73,22,23,24,25,26,27,28,29,30,31,32,33,34,35,36,37,38,39,40,41,42,43,44,45,46,47,48,49,50,51,52,53,54,55,56,57,58,59,60,61,62,63,64,65,66,67,68,69,70,71,72,73,74,75,76,77,78,79,81,82,84,85,87,89,91,23,24,25,26,28,29,30,31,32,33,34,35,36,37,38,39,40,41,42,44,45,46,47,48,49,50,52,53,55,56,57,58,59,60,61,62,63,64,66,67,68,71,73,74,75,76,78,84,24,25,26,27,28,29,30,31,32,33,34,35,36,37,38,39,40,41,42,44,45,46,47,48,49,50,51,52,53,55,56,57,58,59,60,61,62,63,66,67,69,70,73,74,75,76,84,89,25,26,27,28,29,30,31,32,33,34,35,36,37,38,39,40,41,42,43,44,45,46,47,48,49,50,51,52,53,54,55,56,57,58,59,60,61,62,63,64,65,66,67,68,69,70,71,72,73,74,75,76,77,78,79,80,81,82,83,84,85,86,88,89,91,26,27,28,29,30,32,34,35,37,38,39,40,41,42,43,44,45,46,47,48,49,50,51,52,53,55,56,58,59,60,61,62,63,64,65,66,67,68,69,70,74,75,27,28,29,30,31,32,33,34,35,36,37,38,39,40,41,42,43,44,45,46,47,48,49,50,51,53,54,56,58,59,60,61,63,64,65,66,67,68,69,71,72,73,75,76,77,79,80,81,83,85,86,89,91,28,29,30,31,32,33,34,35,36,37,38,39,40,41,42,43,44,45,46,47,48,49,50,51,52,53,54,55,56,57,58,59,60,61,62,63,64,65,66,67,68,69,70,71,73,74,75,76,78,79,82,84,85,87,89,29,30,31,32,33,34,35,36,37,39,40,41,42,43,44,45,46,47,48,49,50,51,52,53,54,55,56,57,59,60,62,63,64,66,68,69,70,71,72,74,77,79,80,81,83,86,30,31,32,33,34,35,36,37,38,39,40,41,42,43,44,45,48,49,50,51,52,53,54,55,57,58,59,60,61,62,64,65,66,67,68,69,70,71,72,74,77,79,80,81,83,86,31,32,33,34,35,36,37,38,39,40,41,42,43,44,45,46,47,49,50,51,52,53,54,55,56,57,58,60,61,62,64,65,66,67,68,69,71,72,73,74,75,78,79,80,81,82,83,84,85,86,87,32,33,34,35,36,37,38,39,40,41,42,43,44,45,46,47,48,49,50,51,52,53,54,55,56,57,58,59,60,61,62,63,64,65,66,67,68,69,70,73,74,75,76,78,79,81,82,84,85,87,89,33,34,36,37,38,39,41,42,43,44,45,46,47,48,51,52,54,55,56,57,58,60,64,65,68,69,70,71,72,73,79,80,83,85,34,35,37,38,39,40,41,42,43,44,45,46,47,48,49,50,51,52,53,55,56,58,59,60,61,62,63,64,65,66,67,68,69,70,71,72,74,75,77,79,80,81,83,86,35,36,37,38,39,40,41,42,43,45,46,47,48,49,51,52,53,54,55,56,57,58,60,61,64,66,67,68,69,70,71,72,73,75,79,80,81,83,84,86,36,37,38,39,41,42,43,44,45,46,47,48,49,51,52,53,54,55,56,57,58,60,61,64,65,67,68,69,70,71,72,73,75,79,80,83,84,85,37,38,39,40,41,42,43,44,45,46,47,48,49,50,51,52,53,55,56,57,58,59,60,61,62,63,64,65,66,67,68,69,70,71,72,74,75,76,77,79,80,81,83,84,86,88,89,38,39,40,42,43,45,46,47,48,49,50,51,52,53,54,55,56,57,58,59,60,61,62,63,64,65,66,68,70,71,72,73,74,75,76,77,78,79,80,81,82,83,87,39,40,41,42,43,44,45,46,47,48,49,50,51,52,53,54,55,56,57,59,60,61,62,63,64,66,67,68,69,70,71,72,74,77,79,80,81,83,84,86,88,40,41,42,43,44,45,46,47,48,49,50,51,52,53,54,55,56,57,58,59,61,62,64,65,66,69,70,73,74,75,78,82,85,41,42,43,44,45,46,47,48,49,51,52,53,54,55,56,57,58,60,61,64,65,67,68,69,70,71,72,73,75,79,80,83,84,85,42,43,45,46,47,48,49,50,51,52,53,54,55,56,57,58,59,60,61,62,63,64,65,66,67,68,69,70,71,72,73,74,75,76,77,78,79,80,81,82,83,84,87,89,43,44,45,46,47,48,49,50,51,52,53,54,55,56,57,58,59,60,61,62,63,64,65,66,67,69,70,73,74,75,76,78,79,81,82,84,85,89,44,45,46,47,48,49,50,51,52,53,55,56,57,58,59,60,61,62,63,64,66,67,68,69,70,71,72,73,74,75,76,77,78,80,83,84,89,45,46,47,48,49,50,51,52,53,54,55,56,57,58,59,60,61,62,63,64,65,66,67,68,69,70,71,72,73,74,75,76,77,78,79,80,81,82,83,84,86,87,88,89,90,46,47,48,49,50,51,52,53,54,55,56,57,58,59,60,61,62,63,64,65,66,67,68,69,70,71,72,73,74,75,76,77,78,79,81,82,84,85,87,89,91,47,48,49,50,51,52,53,54,55,57,58,59,60,61,62,64,65,66,67,68,69,70,71,72,73,74,75,77,78,79,80,81,82,83,85,86,87,91,48,49,50,51,52,53,54,55,56,57,58,59,60,61,62,63,64,65,66,67,68,69,70,71,72,73,74,77,78,79,80,81,82,83,84,85,86,87,88,90,49,50,51,52,53,54,55,56,57,58,59,60,61,62,63,64,65,66,67,68,69,71,72,73,74,75,76,77,78,79,80,81,82,83,84,85,86,87,88,89,91,50,51,52,54,55,56,57,58,59,60,62,63,64,65,66,68,69,70,71,72,73,77,79,80,81,83,85,86,91,51,52,53,54,55,56,57,58,60,61,64,65,66,67,68,69,70,71,72,73,75,79,80,81,83,84,85,86,52,53,54,55,56,57,58,59,60,61,62,63,64,65,66,67,68,71,72,73,74,75,76,77,78,79,80,81,82,83,84,85,86,87,88,91,53,54,56,58,59,60,61,63,64,65,66,67,68,69,71,72,73,75,76,77,79,80,81,83,85,86,89,91,54,55,56,57,58,59,60,62,63,64,65,66,68,69,70,71,72,73,74,77,78,79,80,81,82,83,85,86,87,91,55,56,57,58,59,60,61,62,63,64,65,66,67,68,69,70,71,72,73,74,75,76,77,78,79,80,81,82,83,84,86,87,88,89,90,56,58,59,60,61,62,63,64,65,66,67,68,69,71,72,73,74,75,76,77,78,79,80,81,82,83,85,86,87,89,91,57,58,59,60,61,62,63,64,65,66,67,68,69,70,71,72,73,74,75,76,77,78,79,80,81,82,83,85,86,87,89,91,58,59,60,61,62,63,64,65,66,67,68,69,70,71,72,73,74,75,76,77,78,79,80,81,82,83,85,86,87,89,91,59,60,61,62,63,64,66,67,68,69,70,71,72,73,74,77,78,79,80,81,83,84,85,86,88,91,60,61,62,64,65,66,67,68,69,70,71,72,73,74,75,78,79,80,81,82,83,84,85,86,87,61,62,64,65,66,67,69,70,73,74,75,78,79,81,82,84,85,62,63,64,65,66,68,69,70,71,72,73,74,75,76,77,78,79,80,81,82,83,85,86,87,89,91,63,64,65,66,67,68,69,70,71,72,73,75,76,77,79,80,81,83,84,85,86,88,89,91,64,65,66,67,68,69,70,71,72,73,74,75,77,78,79,80,81,82,83,84,85,86,87,88,90,91,65,66,67,68,69,70,71,73,74,75,76,79,81,84,85,89,66,67,68,69,70,71,72,73,74,75,76,77,78,79,80,81,83,84,85,86,88,89,91,67,68,69,70,71,72,73,74,75,76,77,78,79,80,81,82,83,84,85,86,87,88,90,91,68,69,70,71,72,73,74,75,76,77,78,79,80,81,82,83,85,86,87,89,91,69,70,73,74,75,76,78,79,81,82,84,85,89,70,71,72,73,74,75,76,77,78,79,80,81,82,83,84,85,86,87,88,90,91,71,72,73,74,75,76,77,78,79,80,81,82,83,84,85,86,87,88,89,91,73,74,75,76,78,79,81,82,84,85,87,89,73,74,75,76,78,79,81,82,84,85,87,89,74,75,76,77,79,80,81,83,84,86,88,89,75,76,77,79,80,81,83,84,85,86,88,89,91,77,78,79,80,81,82,83,84,85,86,87,88,90,91,77,78,79,80,81,82,83,84,85,86,87,88,90,91,78,79,80,81,82,83,84,85,86,87,88,89,90,79,80,81,83,84,85,86,88,89,91,80,82,83,84,85,87,89,91,81,82,84,85,87,89,91,82,83,84,85,87,89,91,83,84,85,86,88,89,91,84,85,87,89,91,85,86,87,89,91,86,87,88,89,90,87,89,91,88,89,91,89,91,90,91,91];

USEFUL_RES = [{},
	{1,2,3,4,5,8,12,15,19,20,25},
	{1,3,4,5,6,8,9,10,15,19,20,22,24,26},
	{1,2,3,6,8,11,12,14,15,17,25},
	{1,3,4,5,6,7,8,11,14,15,16,17,19,20,21,23},
	{2,6,7,11,14,16,17,18,21},
	{1,3,4,5,8,15,19,20,23},
	{1,3,4,5,6,8,9,10,15,19,20,22,24,26},
	{1,2,3,4,5,6,7,8,9,10,11,12,14,15,16,17,18,19,20,21,22,23,24,25,26},
	{1,3,4,5,8,15,19,20},
	{6,7,11,14,16,17,18,21},
	{1,2,3,6,8,9,10,15,22,24,25,26},
	{1,3,4,5,6,8,9,10,15,19,20,22,24,26},
	{1,3,4,5,8,15,19,20,23},
	{1,2,3,4,5,6,7,8,9,11,14,15,16,17,19,20,21,22,23,24,25},
	{6,7,11,14,16,17,18,21},
	{2,3,6,7,9,11,12,14,16,17,18,21,22,24,25},
	{1,2,3,4,5,6,7,8,9,10,11,12,14,15,16,17,18,19,20,21,22,23,24,25,26},
	{1,3,6,7,8,9,10,11,14,15,16,17,21,22,24,26},
	{1,2,3,4,5,6,7,8,9,10,11,12,14,15,16,17,18,19,20,21,22,24,25,26},
	{1,3,4,5,6,8,9,10,15,19,20,22,24,26},
	{1,3,4,5,6,8,9,10,12,13,15,17,19,20,22,24,26},
	{1,3,4,5,6,8,9,10,15,19,20,22,23,24,26},
	{1,2,3,4,5,6,7,8,11,14,15,16,17,18,19,20,21,23,25},
	{6,7,11,14,16,17,21},
	{1,2,3,4,5,6,8,9,10,12,15,19,20,22,23,24,25,26},
	{1,2,3,4,5,6,7,8,9,10,11,12,14,15,16,17,18,19,20,21,22,23,24,25,26},
	{1,2,3,4,5,6,7,8,9,10,11,14,15,16,17,19,20,21,22,24,25,26},
	{1,2,3,4,5,6,7,8,9,10,11,14,15,16,17,18,19,20,21,22,23,24,25,26},
	{1,3,4,5,6,7,8,11,14,15,16,17,18,19,20,21,23},
	{1,3,4,5,6,8,9,15,19,20,22,24},
	{1,2,3,4,5,6,8,11,14,15,17,19,20,23,25},
	{1,2,3,4,5,8,12,15,19,20,25},
	{1,2,3,4,5,8,12,15,19,20,23,25},
	{1,2,3,4,5,6,8,9,11,12,14,15,17,19,20,22,23,24,25},
	{1,2,3,4,5,6,7,8,9,10,11,14,15,16,17,19,20,21,22,23,24,25,26},
	{2,3,6,9,10,22,24,25,26},
	{1,3,4,5,8,15,19,20,23},
	{1,3,4,5,8,15,19,20},
	{1,2,3,4,5,6,7,8,11,12,14,15,16,17,18,19,20,21,25},
	{2,6,7,11,12,14,16,17,18,21,25},
	{3,6,7,9,10,11,14,16,17,21,22,24,26},
	{1,3,4,5,8,15,19,20},
	{1,2,3,4,5,6,7,8,9,10,11,12,14,15,16,17,18,19,20,21,22,24,25,26},
	{1,3,6,8,9,15,22,24},
	{1,3,4,5,8,15,19,20,23},
	{1,3,4,5,6,7,8,9,11,14,15,16,17,19,20,21,22,23,24},
	{1,2,3,4,5,6,7,8,9,10,11,12,13,14,15,16,17,18,19,20,21,22,23,24,25,26},
	{2,12,25},
	{3,6,9,10,22,24,26},
	{1,3,4,5,6,7,8,9,11,14,15,16,17,18,19,20,21,22,24},
	{1,3,4,5,6,7,8,11,14,15,16,17,19,20,21},
	{1,2,3,4,5,6,7,8,9,10,11,14,15,16,17,18,19,20,21,22,23,24,25,26},
	{1,3,4,5,6,7,8,9,10,11,14,15,16,17,18,19,20,21,22,23,24,26},
	{1,3,4,5,6,7,8,9,11,14,15,16,17,18,19,20,21,22,23,24},
	{2,3,6,7,9,10,11,12,14,16,17,21,22,24,25,26},
	{3,6,7,9,10,11,12,13,14,16,17,18,21,22,24,26},
	{1,2,3,4,5,6,8,9,10,11,12,14,15,17,19,20,22,24,25,26},
	{1,3,4,5,6,8,9,10,15,19,20,22,24,26},
	{3,6,7,9,10,11,12,13,14,16,17,18,21,22,24,26},
	{1,3,4,5,6,8,9,10,11,14,15,17,19,20,22,23,24,26},
	{1,2,3,4,5,6,7,8,9,11,12,14,15,16,17,18,19,20,21,22,23,24,25},
	{3,6,7,9,10,11,12,13,14,16,17,18,21,22,24,26},
	{1,2,3,4,5,6,7,8,9,10,11,14,15,16,17,19,20,21,22,24,25,26},
	{1,2,3,6,7,8,9,11,14,15,16,17,21,22,24,25},
	{1,3,4,5,6,7,8,11,14,15,16,17,19,20,21,23},
	{1,3,4,5,6,7,8,11,14,15,16,17,18,19,20,21,23},
	{2,6,7,11,14,16,17,18,21,25},
	{1,3,6,7,8,9,10,11,14,15,16,17,18,21,22,24,26},
	{6,7,11,14,16,17,18,21},
	{2,3,6,7,9,10,11,12,14,16,17,18,21,22,24,25,26},
	{1,3,4,5,6,7,8,9,10,11,14,15,16,17,19,20,21,22,23,24,26},
	{1,2,3,4,5,6,7,8,11,12,14,15,16,17,19,20,21,25},
	{2,6,7,11,14,16,17,18,21},
	{1,2,3,4,5,6,7,8,9,10,11,12,13,14,15,16,17,18,19,20,21,22,23,24,25,26},
	{1,3,4,5,6,7,8,9,11,14,15,16,17,19,20,21,22,23,24},
	{1,2,3,4,5,6,7,8,9,10,11,12,13,14,15,16,17,18,19,20,21,22,23,24,25,26},
	{1,3,4,5,6,7,8,11,14,15,16,17,18,19,20,21},
	{1,3,4,5,6,8,11,14,15,17,19,20,23},
	{3,6,9,10,12,13,17,22,24,26},
	{1,2,3,4,5,6,7,8,9,10,11,12,14,15,16,17,18,19,20,21,22,24,25,26},
	{1,3,4,5,6,7,8,11,14,15,16,17,19,20,21},
	{1,2,3,4,5,6,7,8,9,10,11,12,14,15,16,17,18,19,20,21,22,24,25,26},
	{1,3,4,5,6,7,8,9,10,11,12,13,14,15,16,17,18,19,20,21,22,24,26},
	{1,2,3,4,5,6,8,11,12,14,15,17,19,20,23,25},
	{1,2,3,4,5,6,7,8,9,10,11,12,13,14,15,16,17,19,20,21,22,23,24,25,26},
	{1,2,3,4,5,6,7,8,9,10,11,12,14,15,16,17,18,19,20,21,22,24,25,26},
	{1,2,3,4,5,6,7,8,9,11,12,14,15,16,17,18,19,20,21,22,24,25},
	{1,2,3,4,5,6,8,9,10,12,15,19,20,22,23,24,25,26},
	{1,3,4,5,6,7,8,9,10,11,12,13,14,15,16,17,18,19,20,21,22,23,24,26},
	{1,3,4,5,6,7,8,9,10,11,12,13,14,15,16,17,18,19,20,21,22,23,24,26},
	{}];

POTENTIAL_ACT = [{2,3,4,5,7,8,9,10,12,13,14,15,18,19,20,21,22,23,24,26,27,28,29,30,31,32,33,34,35,36,38,39,40,43,44,45,46,47,48,51,52,53,54,55,58,59,61,62,64,65,66,67,69,72,73,75,76,77,78,79,81,82,83,84,85,86,87,88,89,90,91},
	{2,4,6,9,12,15,17,18,20,24,26,27,28,29,32,33,34,35,36,37,40,41,44,48,49,53,56,58,62,64,65,68,71,73,74,75,77,81,83,85,86,87,88,89},
	{2,3,4,5,7,8,9,10,12,13,14,15,17,18,19,20,21,22,23,24,26,27,28,29,30,31,32,33,34,35,36,37,38,39,40,42,43,44,45,46,47,48,50,51,52,53,54,55,56,57,58,59,60,61,62,63,64,65,66,67,69,71,72,73,75,76,77,78,79,80,81,82,83,84,85,86,87,88,89,90,91},
	{2,3,5,7,8,9,10,13,14,15,18,20,21,22,23,24,26,27,28,29,30,31,32,33,34,35,36,38,39,40,43,44,46,47,48,51,52,53,54,55,58,59,61,62,64,66,67,72,73,75,76,77,78,79,81,82,83,84,85,86,87,88,89,90,91},
	{2,3,5,7,8,9,10,13,14,15,18,20,21,22,23,24,26,27,28,29,30,31,32,33,34,35,36,38,39,40,43,44,46,47,48,51,52,53,54,55,58,59,61,62,64,66,67,72,73,75,76,77,78,79,81,82,83,84,85,86,87,88,89,90,91},
	{3,4,5,6,8,9,11,12,13,15,16,17,18,19,20,21,22,23,24,25,26,27,28,29,30,31,32,35,36,37,40,41,42,44,45,47,48,50,51,52,53,54,55,56,57,58,59,60,61,62,63,64,65,66,67,68,69,70,71,72,73,74,75,76,77,78,79,80,81,82,83,84,85,86,87,88,89,90,91},
	{5,6,9,11,15,16,17,18,19,20,24,25,27,28,29,30,36,40,41,42,44,47,48,51,52,53,54,55,56,57,60,62,63,64,65,66,67,68,69,70,71,72,73,74,75,76,77,78,81,82,83,84,86,87,88,90,91},
	{2,3,4,5,7,8,9,10,12,13,14,15,18,19,20,21,22,23,24,26,27,28,29,30,31,32,33,34,35,36,38,39,40,43,44,45,46,47,48,51,52,53,54,55,58,59,61,62,64,65,66,67,69,72,73,75,76,77,78,79,81,82,83,84,85,86,87,88,89,90,91},
	{3,8,9,12,13,15,17,18,19,20,21,22,23,26,27,28,29,31,35,36,37,42,44,45,47,48,50,51,53,54,55,56,57,58,59,60,61,62,63,64,65,69,71,72,75,76,77,80,81,83,84,86,87,88,89,90,91},
	{3,8,9,12,13,18,19,20,21,22,23,26,27,28,29,36,37,42,44,48,50,53,54,56,57,58,59,60,61,63,64,69,71,72,75,77,80,81,83,84,86,87,89,90,91},
	{4,5,6,9,11,15,16,17,18,19,20,24,25,27,28,29,30,32,35,36,40,41,42,44,47,48,51,52,53,54,55,56,57,58,60,61,62,63,64,65,66,67,68,69,70,71,72,73,74,75,76,77,78,79,81,82,83,84,85,86,87,88,90,91},
	{2,4,9,17,18,20,22,26,27,33,34,35,40,41,44,48,49,56,57,58,60,62,63,71,73,75,77,80,81,83,84,85,86,87,88,89,90,91},
	{22,48,57,60,63,75,77,80,84,86,90,91},
	{4,5,6,9,11,15,16,17,18,19,20,24,25,27,28,29,30,32,35,36,40,41,42,44,47,48,51,52,53,54,55,56,57,58,60,61,62,63,64,65,66,67,68,69,70,71,72,73,74,75,76,77,78,79,81,82,83,84,85,86,87,88,90,91},
	{2,3,4,5,7,8,9,10,12,13,14,15,18,19,20,21,22,23,24,26,27,28,29,30,31,32,33,34,35,36,38,39,40,43,44,45,46,47,48,51,52,53,54,55,58,59,61,62,64,65,66,67,69,72,73,75,76,77,78,79,81,82,83,84,85,86,87,88,89,90,91},
	{5,6,9,11,15,16,17,18,19,20,24,25,27,28,29,30,36,40,41,42,44,47,48,51,52,53,54,55,56,57,60,62,63,64,65,66,67,68,69,70,71,72,73,74,75,76,77,78,81,82,83,84,86,87,88,90,91},
	{4,5,6,9,11,15,16,17,18,19,20,22,24,25,27,28,29,30,32,35,36,40,41,42,44,47,48,51,52,53,54,55,56,57,58,60,61,62,63,64,65,66,67,68,69,70,71,72,73,74,75,76,77,78,79,80,81,82,83,84,85,86,87,88,90,91},
	{6,9,11,16,17,18,20,24,27,29,30,40,41,44,48,51,53,54,55,57,60,62,63,67,68,69,70,71,74,75,77,78,81,83,84,87,88,90,91},
	{2,3,5,7,8,9,10,13,14,15,18,20,21,22,23,24,26,27,28,29,30,31,32,33,34,35,36,38,39,40,43,44,46,47,48,51,52,53,54,55,58,59,61,62,64,66,67,72,73,75,76,77,78,79,81,82,83,84,85,86,87,88,89,90,91},
	{2,3,5,7,8,9,10,13,14,15,18,20,21,22,23,24,26,27,28,29,30,31,32,33,34,35,36,38,39,40,43,44,46,47,48,51,52,53,54,55,58,59,61,62,64,66,67,72,73,75,76,77,78,79,81,82,83,84,85,86,87,88,89,90,91},
	{5,6,9,11,15,16,17,18,19,20,24,25,27,28,29,30,36,40,41,42,44,47,48,51,52,53,54,55,56,57,60,62,63,64,65,66,67,68,69,70,71,72,73,74,75,76,77,78,81,82,83,84,86,87,88,90,91},
	{3,8,9,12,13,15,17,18,19,20,21,22,23,26,27,28,29,31,35,36,37,42,44,45,47,48,50,51,53,54,55,56,57,58,59,60,61,62,63,64,65,69,71,72,75,76,77,80,81,83,84,86,87,88,89,90,91},
	{5,7,9,14,15,18,23,24,26,27,29,30,32,34,35,36,38,46,47,48,53,54,55,61,62,66,67,72,75,76,77,79,85,86,89,90,91},
	{3,8,9,12,13,15,17,18,19,20,21,22,23,26,27,28,29,31,35,36,37,42,44,45,47,48,50,51,53,54,55,56,57,58,59,60,61,62,63,64,65,69,71,72,75,76,77,80,81,83,84,86,87,88,89,90,91},
	{2,4,9,12,15,17,18,20,24,26,27,28,29,32,33,34,35,36,37,40,41,44,48,49,53,56,58,62,64,65,68,71,73,75,77,81,83,85,86,87,88,89},
	{3,8,9,12,13,18,19,20,21,22,23,26,27,28,29,36,37,42,44,48,50,53,54,56,57,58,59,60,61,63,64,69,71,72,75,77,80,81,83,84,86,87,89,90,91}];
